
Gurobi 7.0.2 (linux64) logging started Sun May 29 11:59:23 2022


Gurobi 7.0.2 (linux64) logging started Sun May 29 12:00:04 2022


Gurobi 7.0.2 (linux64) logging started Sun May 29 12:00:12 2022


Gurobi 7.0.2 (linux64) logging started Sun May 29 12:00:19 2022


Gurobi 7.0.2 (linux64) logging started Sun May 29 12:00:22 2022

